NAME : inputfile
TYPE : TSP
COMMENT : COMMENT
DIMENSION : 60
EDGE_WEIGHT_TYPE : ATT
NODE_COORD_SECTION
1 25 35
2 26 43
3 86 57
4 94 82
5 70 82
6 69 63
7 23 61
8 89 61
9 34 92
10 63 14
11 46 72
12 3 81
13 22 7
14 60 1
15 31 13
16 2 44
17 28 38
18 77 97
19 42 22
20 67 71
21 48 8
22 60 22
23 27 79
24 57 52
25 20 28
26 53 66
27 48 37
28 15 76
29 17 6
30 36 50
31 81 30
32 51 75
33 93 60
34 84 89
35 12 53
36 42 57
37 28 5
38 14 41
39 64 30
40 81 9
41 28 13
42 96 19
43 76 33
44 18 45
45 28 10
46 60 66
47 54 12
48 88 52
49 16 62
50 58 55
51 52 8
52 42 11
53 30 85
54 34 61
55 43 48
56 87 44
57 85 17
58 24 86
59 69 7
60 7 60
EOF
